Minimize
+ 6.0 x112 + 6.0 x113 + 6.0 x114 + 6.0 x115 + 6.0 x116 + 6.0 x117 + 10.0 x139 + 10.0 x140 + 10.0 x141 + 10.0 x142 + 10.0 x143 + 10.0 x144 + 10.0 x145 + 10.0 x146 + 10.0 x147 + 6.0 x228 + 6.0 x229 + 6.0 x230 + 6.0 x231 + 6.0 x232 + 6.0 x233 + 6.0 x234 + 6.0 x235 + 10.0 x306 + 10.0 x307 + 10.0 x308 + 10.0 x309 + 10.0 x310 + 10.0 x311 + 10.0 x312 + 10.0 x313 + 10.0 x314 + 10.0 x315 + 10.0 x316 + 10.0 x317 + 6.0 x350 + 6.0 x351 + 6.0 x352 + 6.0 x353 + 6.0 x354 + 6.0 x355 + 6.0 x356 + 6.0 x357 + 6.0 x466 + 6.0 x467 + 6.0 x468 + 10.0 x469 + 10.0 x470 + 10.0 x471 + 16.0 x472 + 16.0 x473 + 16.0 x474 
Subject To
r_1: + x1 + x2 + x3 - 1.0 x448  = 0
r_2: - 1.0 x1 + x4 + x5 + x6 - 1.0 x466 - 1.0 x469 - 1.0 x472  = 0
r_3: - 1.0 x2 + x7 + x8 + x9 - 1.0 x467 - 1.0 x470 - 1.0 x473  = 0
r_4: - 1.0 x3 + x10 + x11 + x12 - 1.0 x468 - 1.0 x471 - 1.0 x474  = 0
r_5: - 1.0 x4 + x13 + x14 + x15  = 0
r_6: - 1.0 x5 - 1.0 x7 + x16 + x17 + x18  = 0
r_7: - 1.0 x6 - 1.0 x10 + x19 + x20 + x21  = 0
r_8: - 1.0 x8 + x22 + x23  = 0
r_9: - 1.0 x9 - 1.0 x11 + x24 + x25 + x26  = 0
r_10: - 1.0 x12 + x27 + x28 + x29  = 0
r_11: - 1.0 x13 + x30 + x31 + x32  = 0
r_12: - 1.0 x14 - 1.0 x16 + x33 + x34 + x35  = 0
r_13: - 1.0 x15 - 1.0 x19 + x36 + x37 + x38  = 0
r_14: - 1.0 x17 - 1.0 x22 + x39 + x40  = 0
r_15: - 1.0 x18 - 1.0 x20 - 1.0 x24 + x41 + x42 + x43  = 0
r_16: - 1.0 x21 - 1.0 x27 + x44 + x45 + x46  = 0
r_17: - 1.0 x23 - 1.0 x25 + x47 + x48  = 0
r_18: - 1.0 x26 - 1.0 x28 + x49 + x50 + x51  = 0
r_19: - 1.0 x29 + x52 + x53 + x54  = 0
r_20: - 0.5 x30 + x55 + x56  = 0
r_21: - 0.5 x30 + x57 + x58  = 0
r_22: - 1.0 x31 - 1.0 x33 + x59 + x60  = 0
r_23: - 1.0 x32 - 1.0 x36 + x61 + x62  = 0
r_24: - 1.0 x34 - 1.0 x39 + x63  = 0
r_25: - 1.0 x35 - 1.0 x37 - 1.0 x41 + x64 + x65  = 0
r_26: - 1.0 x38 - 1.0 x44 + x66 + x67  = 0
r_27: - 1.0 x40 - 1.0 x42 - 1.0 x47 + x68  = 0
r_28: - 1.0 x43 - 1.0 x45 - 1.0 x49 + x69 + x70  = 0
r_29: - 1.0 x46 - 1.0 x52 + x71 + x72  = 0
r_30: - 1.0 x48 - 1.0 x50 + x73  = 0
r_31: - 1.0 x51 - 1.0 x53 + x74 + x75  = 0
r_32: - 1.0 x54 + x76 + x77  = 0
r_33: - 1.0 x55 + x78 + x79  = 0
r_34: - 1.0 x56 + x80 + x81  = 0
r_35: - 1.0 x57 + x82 + x83  = 0
r_36: - 1.0 x58 + x84 + x85  = 0
r_37: - 1.0 x59 + x86  = 0
r_38: - 1.0 x60 - 1.0 x61 + x87 + x88  = 0
r_39: - 1.0 x62 + x89 + x90  = 0
r_40: - 1.0 x63 - 1.0 x64 + x91  = 0
r_41: - 1.0 x65 - 1.0 x66 + x92 + x93  = 0
r_42: - 1.0 x67 + x94 + x95  = 0
r_43: - 1.0 x68 - 1.0 x69 + x96  = 0
r_44: - 1.0 x70 - 1.0 x71 + x97 + x98  = 0
r_45: - 1.0 x72 + x99 + x100  = 0
r_46: - 1.0 x73 - 1.0 x74 + x101  = 0
r_47: - 1.0 x75 - 1.0 x76 + x102 + x103  = 0
r_48: - 1.0 x77 + x104 + x105  = 0
r_49: - 1.0 x78 + x106 + x107  = 0
r_50: - 1.0 x79 - 1.0 x80 + x108 + x109  = 0
r_51: - 1.0 x81 + x110 + x111  = 0
r_52: - 1.0 x82 - 1.0 x86 - 1.0 x87 - 1.0 x91 - 1.0 x92 - 1.0 x96 - 1.0 x97 - 1.0 x101 - 1.0 x102 + x112 + x113  = 0
r_53: - 1.0 x83 - 1.0 x84 - 1.0 x88 - 1.0 x89 - 1.0 x93 - 1.0 x94 - 1.0 x98 - 1.0 x99 - 1.0 x103 - 1.0 x104 + x114 + x115  = 0
r_54: - 1.0 x85 - 1.0 x90 - 1.0 x95 - 1.0 x100 - 1.0 x105 + x116 + x117  = 0
r_55: - 1.0 x106 - 1.0 x112 + x118 + x119  = 0
r_56: - 1.0 x107 - 1.0 x113 + x120 + x121  = 0
r_57: - 1.0 x108 - 1.0 x114 + x122 + x123  = 0
r_58: - 1.0 x109 - 1.0 x115 + x124 + x125  = 0
r_59: - 1.0 x110 - 1.0 x116 + x126 + x127  = 0
r_60: - 1.0 x111 - 1.0 x117 + x128 + x129  = 0
r_61: - 1.0 x118 + x130 + x131 + x132  = 0
r_62: - 1.0 x119 - 1.0 x120 + x133 + x134 + x135  = 0
r_63: - 1.0 x121 + x136 + x137 + x138  = 0
r_64: - 1.0 x122 - 1.0 x126 + x139 + x140 + x141  = 0
r_65: - 1.0 x123 - 1.0 x124 - 1.0 x127 - 1.0 x128 + x142 + x143 + x144  = 0
r_66: - 1.0 x125 - 1.0 x129 + x145 + x146 + x147  = 0
r_67: - 1.0 x130 - 1.0 x139 + x148 + x149 + x150  = 0
r_68: - 1.0 x131 - 1.0 x140 + x151 + x152 + x153  = 0
r_69: - 1.0 x132 - 1.0 x133 - 1.0 x141 - 1.0 x142 + x154 + x155 + x156  = 0
r_70: - 1.0 x134 - 1.0 x143 + x157 + x158 + x159  = 0
r_71: - 1.0 x135 - 1.0 x136 - 1.0 x144 - 1.0 x145 + x160 + x161 + x162  = 0
r_72: - 1.0 x137 - 1.0 x146 + x163 + x164 + x165  = 0
r_73: - 1.0 x138 - 1.0 x147 + x166 + x167 + x168  = 0
r_74: - 0.5 x148 + x169 + x170  = 0
r_75: - 0.5 x148 + x171 + x172  = 0
r_76: - 1.0 x149 - 1.0 x151 + x173 + x174  = 0
r_77: - 1.0 x150 - 1.0 x154 + x175 + x176  = 0
r_78: - 1.0 x152 + x177  = 0
r_79: - 1.0 x153 - 1.0 x155 - 1.0 x157 + x178 + x179  = 0
r_80: - 1.0 x156 - 1.0 x160 + x180 + x181  = 0
r_81: - 1.0 x158 + x182  = 0
r_82: - 1.0 x159 - 1.0 x161 - 1.0 x163 + x183 + x184  = 0
r_83: - 1.0 x162 - 1.0 x166 + x185 + x186  = 0
r_84: - 1.0 x164 + x187  = 0
r_85: - 1.0 x165 - 1.0 x167 + x188 + x189  = 0
r_86: - 1.0 x168 + x190 + x191  = 0
r_87: - 1.0 x169 + x192 + x193  = 0
r_88: - 1.0 x170 + x194 + x195  = 0
r_89: - 1.0 x171 + x196 + x197  = 0
r_90: - 1.0 x172 + x198 + x199  = 0
r_91: - 1.0 x173 + x200  = 0
r_92: - 1.0 x174 - 1.0 x175 + x201 + x202  = 0
r_93: - 1.0 x176 + x203 + x204  = 0
r_94: - 1.0 x177 - 1.0 x178 + x205  = 0
r_95: - 1.0 x179 - 1.0 x180 + x206 + x207  = 0
r_96: - 1.0 x181 + x208 + x209  = 0
r_97: - 1.0 x182 - 1.0 x183 + x210  = 0
r_98: - 1.0 x184 - 1.0 x185 + x211 + x212  = 0
r_99: - 1.0 x186 + x213 + x214  = 0
r_100: - 1.0 x187 - 1.0 x188 + x215  = 0
r_101: - 1.0 x189 - 1.0 x190 + x216 + x217  = 0
r_102: - 1.0 x191 + x218 + x219  = 0
r_103: - 1.0 x192 + x220 + x221  = 0
r_104: - 1.0 x193 - 1.0 x194 + x222 + x223 + x224  = 0
r_105: - 1.0 x195 + x225 + x226 + x227  = 0
r_106: - 1.0 x196 - 1.0 x200 - 1.0 x201 - 1.0 x205 - 1.0 x206 - 1.0 x210 - 1.0 x211 - 1.0 x215 - 1.0 x216 + x228 + x229  = 0
r_107: - 1.0 x197 - 1.0 x198 - 1.0 x202 - 1.0 x203 - 1.0 x207 - 1.0 x208 - 1.0 x212 - 1.0 x213 - 1.0 x217 - 1.0 x218 + x230 + x231 + x232  = 0
r_108: - 1.0 x199 - 1.0 x204 - 1.0 x209 - 1.0 x214 - 1.0 x219 + x233 + x234 + x235  = 0
r_109: - 1.0 x220 - 1.0 x228 + x236 + x237  = 0
r_110: - 1.0 x221 - 1.0 x223 - 1.0 x229 - 1.0 x231 + x238 + x239  = 0
r_111: - 1.0 x222 - 1.0 x230 + x240 + x241 + x242  = 0
r_112: - 1.0 x224 - 1.0 x226 - 1.0 x232 - 1.0 x234 + x243 + x244 + x245  = 0
r_113: - 1.0 x225 - 1.0 x233 + x246 + x247 + x248  = 0
r_114: - 1.0 x227 - 1.0 x235 + x249 + x250 + x251  = 0
r_115: - 1.0 x236 + x252 + x253  = 0
r_116: - 1.0 x237 - 1.0 x238 - 1.0 x241 + x254 + x255  = 0
r_117: - 1.0 x239 - 1.0 x244 + x256 + x257  = 0
r_118: - 1.0 x240 + x258 + x259  = 0
r_119: - 1.0 x242 - 1.0 x243 - 1.0 x247 + x260 + x261  = 0
r_120: - 1.0 x245 - 1.0 x250 + x262 + x263  = 0
r_121: - 1.0 x246 + x264 + x265  = 0
r_122: - 1.0 x248 - 1.0 x249 + x266 + x267  = 0
r_123: - 1.0 x251 + x268 + x269  = 0
r_124: - 1.0 x252 + x270 + x271  = 0
r_125: - 1.0 x253 - 1.0 x254 + x272 + x273  = 0
r_126: - 1.0 x255 - 1.0 x256 + x274 + x275  = 0
r_127: - 1.0 x257 + x276 + x277  = 0
r_128: - 1.0 x258 + x278 + x279  = 0
r_129: - 1.0 x259 - 1.0 x260 + x280 + x281  = 0
r_130: - 1.0 x261 - 1.0 x262 + x282 + x283  = 0
r_131: - 1.0 x263 + x284 + x285  = 0
r_132: - 1.0 x264 + x286 + x287  = 0
r_133: - 1.0 x265 - 1.0 x266 + x288 + x289  = 0
r_134: - 1.0 x267 - 1.0 x268 + x290 + x291  = 0
r_135: - 1.0 x269 + x292 + x293  = 0
r_136: - 0.5 x270 + x294 + x295  = 0
r_137: - 0.5 x270 + x296 + x297  = 0
r_138: - 1.0 x271 - 1.0 x272 + x298 + x299  = 0
r_139: - 1.0 x273 - 1.0 x274 + x300 + x301  = 0
r_140: - 1.0 x275 - 1.0 x276 + x302 + x303  = 0
r_141: - 1.0 x277 + x304 + x305  = 0
r_142: - 0.5 x278 - 0.5 x286 + x306 + x307  = 0
r_143: - 0.5 x278 - 0.5 x286 + x308 + x309  = 0
r_144: - 1.0 x279 - 1.0 x280 - 1.0 x287 - 1.0 x288 + x310 + x311  = 0
r_145: - 1.0 x281 - 1.0 x282 - 1.0 x289 - 1.0 x290 + x312 + x313  = 0
r_146: - 1.0 x283 - 1.0 x284 - 1.0 x291 - 1.0 x292 + x314 + x315  = 0
r_147: - 1.0 x285 - 1.0 x293 + x316 + x317  = 0
r_148: - 1.0 x294 - 1.0 x306 + x318 + x319  = 0
r_149: - 1.0 x295 - 1.0 x307 + x320 + x321  = 0
r_150: - 1.0 x296 - 1.0 x308 + x322 + x323  = 0
r_151: - 1.0 x297 - 1.0 x309 + x324 + x325  = 0
r_152: - 1.0 x298 - 1.0 x310 + x326 + x327  = 0
r_153: - 1.0 x299 - 1.0 x311 + x328 + x329  = 0
r_154: - 1.0 x300 - 1.0 x312 + x330 + x331  = 0
r_155: - 1.0 x301 - 1.0 x313 + x332 + x333  = 0
r_156: - 1.0 x302 - 1.0 x314 + x334 + x335  = 0
r_157: - 1.0 x303 - 1.0 x315 + x336 + x337  = 0
r_158: - 1.0 x304 - 1.0 x316 + x338 + x339  = 0
r_159: - 1.0 x305 - 1.0 x317 + x340 + x341  = 0
r_160: - 1.0 x318 + x342 + x343  = 0
r_161: - 1.0 x319 - 1.0 x320 + x344 + x345 + x346  = 0
r_162: - 1.0 x321 + x347 + x348 + x349  = 0
r_163: - 1.0 x322 - 1.0 x326 - 1.0 x330 - 1.0 x334 - 1.0 x338 + x350 + x351  = 0
r_164: - 1.0 x323 - 1.0 x324 - 1.0 x327 - 1.0 x328 - 1.0 x331 - 1.0 x332 - 1.0 x335 - 1.0 x336 - 1.0 x339 - 1.0 x340 + x352 + x353 + x354  = 0
r_165: - 1.0 x325 - 1.0 x329 - 1.0 x333 - 1.0 x337 - 1.0 x341 + x355 + x356 + x357  = 0
r_166: - 1.0 x342 - 1.0 x350 + x358 + x359  = 0
r_167: - 1.0 x343 - 1.0 x345 - 1.0 x351 - 1.0 x353 + x360 + x361  = 0
r_168: - 1.0 x344 - 1.0 x352 + x362 + x363 + x364  = 0
r_169: - 1.0 x346 - 1.0 x348 - 1.0 x354 - 1.0 x356 + x365 + x366 + x367  = 0
r_170: - 1.0 x347 - 1.0 x355 + x368 + x369 + x370  = 0
r_171: - 1.0 x349 - 1.0 x357 + x371 + x372 + x373  = 0
r_172: - 1.0 x358 + x374 + x375  = 0
r_173: - 1.0 x359 - 1.0 x360 - 1.0 x363 + x376 + x377  = 0
r_174: - 1.0 x361 - 1.0 x366 + x378 + x379  = 0
r_175: - 1.0 x362 + x380 + x381 + x382  = 0
r_176: - 1.0 x364 - 1.0 x365 - 1.0 x369 + x383 + x384 + x385  = 0
r_177: - 1.0 x367 - 1.0 x372 + x386 + x387 + x388  = 0
r_178: - 1.0 x368 + x389 + x390 + x391  = 0
r_179: - 1.0 x370 - 1.0 x371 + x392 + x393 + x394  = 0
r_180: - 1.0 x373 + x395 + x396 + x397  = 0
r_181: - 1.0 x374 + x398 + x399  = 0
r_182: - 1.0 x375 - 1.0 x376 - 1.0 x381 + x400 + x401  = 0
r_183: - 1.0 x377 - 1.0 x378 - 1.0 x384 + x402 + x403  = 0
r_184: - 1.0 x379 - 1.0 x387 + x404 + x405  = 0
r_185: - 1.0 x380 + x406 + x407 + x408  = 0
r_186: - 1.0 x382 - 1.0 x383 - 1.0 x390 + x409 + x410 + x411  = 0
r_187: - 1.0 x385 - 1.0 x386 - 1.0 x393 + x412 + x413 + x414  = 0
r_188: - 1.0 x388 - 1.0 x396 + x415 + x416 + x417  = 0
r_189: - 1.0 x389 + x418 + x419 + x420  = 0
r_190: - 1.0 x391 - 1.0 x392 + x421 + x422 + x423  = 0
r_191: - 1.0 x394 - 1.0 x395 + x424 + x425 + x426  = 0
r_192: - 1.0 x397 + x427 + x428 + x429  = 0
r_193: - 0.5 x398 + x430  = 0
r_194: - 0.5 x398 + x431  = 0
r_195: - 1.0 x399 - 1.0 x400 - 1.0 x407 + x432  = 0
r_196: - 1.0 x401 - 1.0 x402 - 1.0 x410 + x433  = 0
r_197: - 1.0 x403 - 1.0 x404 - 1.0 x413 + x434  = 0
r_198: - 1.0 x405 - 1.0 x416 + x435  = 0
r_199: - 0.5 x406 + x436  = 0
r_200: - 0.5 x406 + x437  = 0
r_201: - 1.0 x408 - 1.0 x409 - 1.0 x419 + x438  = 0
r_202: - 1.0 x411 - 1.0 x412 - 1.0 x422 + x439  = 0
r_203: - 1.0 x414 - 1.0 x415 - 1.0 x425 + x440  = 0
r_204: - 1.0 x417 - 1.0 x428 + x441  = 0
r_205: - 0.5 x418 + x442  = 0
r_206: - 0.5 x418 + x443  = 0
r_207: - 1.0 x420 - 1.0 x421 + x444  = 0
r_208: - 1.0 x423 - 1.0 x424 + x445  = 0
r_209: - 1.0 x426 - 1.0 x427 + x446  = 0
r_210: - 1.0 x429 + x447  = 0
r_211: - 1.0 x430 + x448  = 0
r_212: - 1.0 x431 + x449  = 0
r_213: - 1.0 x432 + x450  = 0
r_214: - 1.0 x433 + x451  = 0
r_215: - 1.0 x434 + x452  = 0
r_216: - 1.0 x435 + x453  = 0
r_217: - 1.0 x436 + x454  = 0
r_218: - 1.0 x437 + x455  = 0
r_219: - 1.0 x438 + x456  = 0
r_220: - 1.0 x439 + x457  = 0
r_221: - 1.0 x440 + x458  = 0
r_222: - 1.0 x441 + x459  = 0
r_223: - 1.0 x442 + x460  = 0
r_224: - 1.0 x443 + x461  = 0
r_225: - 1.0 x444 + x462  = 0
r_226: - 1.0 x445 + x463  = 0
r_227: - 1.0 x446 + x464  = 0
r_228: - 1.0 x447 + x465  = 0
r_229: - 1.0 x449 - 1.0 x450 - 1.0 x451 - 1.0 x452 - 1.0 x453 + x466 + x467 + x468  = 0
r_230: - 1.0 x454 - 1.0 x460 + x469 + x470 + x471  = 0
r_231: - 1.0 x455 - 1.0 x456 - 1.0 x457 - 1.0 x458 - 1.0 x459 - 1.0 x461 - 1.0 x462 - 1.0 x463 - 1.0 x464 - 1.0 x465 + x472 + x473 + x474  = 0
r_00: + x1 + x2 + x3 + x4 + x5 + x6 + x7 + x8 + x9 + x10 + x11 + x12 + x13 + x14 + x15 + x16 + x17 + x18 + x19 + x20 + x21 + x22 + x23 + x24 + x25 + x26 + x27 + x28 + x29 + x30 + x31 + x32 + x33 + x34 + x35 + x36 + x37 + x38 + x39 + x40 + x41 + x42 + x43 + x44 + x45 + x46 + x47 + x48 + x49 + x50 + x51 + x52 + x53 + x54 + x55 + x56 + x57 + x58 + x59 + x60 + x61 + x62 + x63 + x64 + x65 + x66 + x67 + x68 + x69 + x70 + x71 + x72 + x73 + x74 + x75 + x76 + x77 + x78 + x79 + x80 + x81 + x82 + x83 + x84 + x85 + x86 + x87 + x88 + x89 + x90 + x91 + x92 + x93 + x94 + x95 + x96 + x97 + x98 + x99 + x100 + x101 + x102 + x103 + x104 + x105 + x106 + x107 + x108 + x109 + x110 + x111 + x112 + x113 + x114 + x115 + x116 + x117 + x118 + x119 + x120 + x121 + x122 + x123 + x124 + x125 + x126 + x127 + x128 + x129 + x130 + x131 + x132 + x133 + x134 + x135 + x136 + x137 + x138 + x139 + x140 + x141 + x142 + x143 + x144 + x145 + x146 + x147 + x148 + x149 + x150 + x151 + x152 + x153 + x154 + x155 + x156 + x157 + x158 + x159 + x160 + x161 + x162 + x163 + x164 + x165 + x166 + x167 + x168 + x169 + x170 + x171 + x172 + x173 + x174 + x175 + x176 + x177 + x178 + x179 + x180 + x181 + x182 + x183 + x184 + x185 + x186 + x187 + x188 + x189 + x190 + x191 + x192 + x193 + x194 + x195 + x196 + x197 + x198 + x199 + x200 + x201 + x202 + x203 + x204 + x205 + x206 + x207 + x208 + x209 + x210 + x211 + x212 + x213 + x214 + x215 + x216 + x217 + x218 + x219 + x220 + x221 + x222 + x223 + x224 + x225 + x226 + x227 + x228 + x229 + x230 + x231 + x232 + x233 + x234 + x235 + x236 + x237 + x238 + x239 + x240 + x241 + x242 + x243 + x244 + x245 + x246 + x247 + x248 + x249 + x250 + x251 + x252 + x253 + x254 + x255 + x256 + x257 + x258 + x259 + x260 + x261 + x262 + x263 + x264 + x265 + x266 + x267 + x268 + x269 + x270 + x271 + x272 + x273 + x274 + x275 + x276 + x277 + x278 + x279 + x280 + x281 + x282 + x283 + x284 + x285 + x286 + x287 + x288 + x289 + x290 + x291 + x292 + x293 + x294 + x295 + x296 + x297 + x298 + x299 + x300 + x301 + x302 + x303 + x304 + x305 + x306 + x307 + x308 + x309 + x310 + x311 + x312 + x313 + x314 + x315 + x316 + x317 + x318 + x319 + x320 + x321 + x322 + x323 + x324 + x325 + x326 + x327 + x328 + x329 + x330 + x331 + x332 + x333 + x334 + x335 + x336 + x337 + x338 + x339 + x340 + x341 + x342 + x343 + x344 + x345 + x346 + x347 + x348 + x349 + x350 + x351 + x352 + x353 + x354 + x355 + x356 + x357 + x358 + x359 + x360 + x361 + x362 + x363 + x364 + x365 + x366 + x367 + x368 + x369 + x370 + x371 + x372 + x373 + x374 + x375 + x376 + x377 + x378 + x379 + x380 + x381 + x382 + x383 + x384 + x385 + x386 + x387 + x388 + x389 + x390 + x391 + x392 + x393 + x394 + x395 + x396 + x397 + x398 + x399 + x400 + x401 + x402 + x403 + x404 + x405 + x406 + x407 + x408 + x409 + x410 + x411 + x412 + x413 + x414 + x415 + x416 + x417 + x418 + x419 + x420 + x421 + x422 + x423 + x424 + x425 + x426 + x427 + x428 + x429 + x430 + x431 + x432 + x433 + x434 + x435 + x436 + x437 + x438 + x439 + x440 + x441 + x442 + x443 + x444 + x445 + x446 + x447 + x448 + x449 + x450 + x451 + x452 + x453 + x454 + x455 + x456 + x457 + x458 + x459 + x460 + x461 + x462 + x463 + x464 + x465 + x466 + x467 + x468 + x469 + x470 + x471 + x472 + x473 + x474 = 1
End